4306156521598306709502,3,1,2,012,10,1,2,01,3,1,2,010,7,1,2,08,7,1,2,04,15,1,2,05,9,1,2,012,7,1,2,015,10,1,2,09,7,1,2,014,2,1,2,03,15,1,2,03,4,1,2,03,4,1,2,08,14,1,2,05,12,1,2,015,13,1,2,01,1,1,2,05,4,1,2,011,4,1,2,08,8,1,2,014,9,1,2,015,1,1,2,014,4,1,2,05,7,1,2,013,10,1,2,02,13,1,2,07,6,1,2,06,7,1,2,013,10,1,2,015,5,1,2,014,11,1,2,05,13,1,2,015,2,1,2,02,9,1,2,05,12,1,2,013,5,1,2,012,11,1,2,06,10,1,2,05,4,1,2,06,9,1,2,09,12,1,2,07,13,1,2,07,1,1,2,011,7,1,2,09,14,1,2,01,5,1,2,08,1,1,2,07,9,1,2,011,15,1,2,0